treewidth/data/KittellGraph.td
c width = 7, time = 0.086350
s td 12 8 23
b 1 2 3 8 10 14 16 20 21
b 2 2 3 4 8 14 16 20 21
b 3 2 4 8 13 18 19 20 21
b 4 1 2 13 18 19 20 21
b 5 4 5 8 13 17 18 19 20
b 6 4 5 7 13 17 18
b 7 5 8 9 17 19 20
b 8 3 4 8 14 15 16
b 9 2 3 10 12 14 16 20 21
b 10 2 3 10 12 14 20 21 22
b 11 2 3 6 12 14 21 22 23
b 12 10 11 12 20 21 22
3 4
5 6
5 7
3 5
2 3
2 8
1 2
10 11
10 12
9 10
1 9
